
(set-logic HORN)
(define-fun Z_1109 () Int 0)
(define-fun S_283 ((x Int)) Int (+ x 1))
(declare-fun diseqInt (Int Int) Bool)
(declare-fun unS_385 (Int Int) Bool)
(declare-fun isZ_265 (Int) Bool)
(declare-fun isS_265 (Int) Bool)
(assert (forall ((x_28321 Int))
	(unS_385 x_28321 (S_283 x_28321))))
(assert (isZ_265 Z_1109))
(assert (forall ((x_28323 Int))
	(isS_265 (S_283 x_28323))))
(assert (forall ((x_28324 Int))
	(diseqInt Z_1109 (S_283 x_28324))))
(assert (forall ((x_28325 Int))
	(diseqInt (S_283 x_28325) Z_1109)))
(assert (forall ((x_28326 Int) (x_28327 Int))
	(=> (diseqInt x_28326 x_28327) (diseqInt (S_283 x_28326) (S_283 x_28327)))))
(declare-fun add_206 (Int Int Int) Bool)
(declare-fun minus_198 (Int Int Int) Bool)
(declare-fun le_192 (Int Int) Bool)
(declare-fun ge_192 (Int Int) Bool)
(declare-fun lt_202 (Int Int) Bool)
(declare-fun gt_194 (Int Int) Bool)
(declare-fun mult_192 (Int Int Int) Bool)
(declare-fun div_192 (Int Int Int) Bool)
(declare-fun mod_192 (Int Int Int) Bool)
(assert (forall ((y_1171 Int))
	(add_206 y_1171 Z_1109 y_1171)))
(assert (forall ((x_28318 Int) (y_1171 Int) (r_227 Int))
	(=> (add_206 r_227 x_28318 y_1171) (add_206 (S_283 r_227) (S_283 x_28318) y_1171))))
(assert (forall ((y_1171 Int))
	(minus_198 Z_1109 Z_1109 y_1171)))
(assert (forall ((x_28318 Int) (y_1171 Int) (r_227 Int))
	(=> (minus_198 r_227 x_28318 y_1171) (minus_198 (S_283 r_227) (S_283 x_28318) y_1171))))
(assert (forall ((y_1171 Int))
	(le_192 Z_1109 y_1171)))
(assert (forall ((x_28318 Int) (y_1171 Int))
	(=> (le_192 x_28318 y_1171) (le_192 (S_283 x_28318) (S_283 y_1171)))))
(assert (forall ((y_1171 Int))
	(ge_192 y_1171 Z_1109)))
(assert (forall ((x_28318 Int) (y_1171 Int))
	(=> (ge_192 x_28318 y_1171) (ge_192 (S_283 x_28318) (S_283 y_1171)))))
(assert (forall ((y_1171 Int))
	(lt_202 Z_1109 (S_283 y_1171))))
(assert (forall ((x_28318 Int) (y_1171 Int))
	(=> (lt_202 x_28318 y_1171) (lt_202 (S_283 x_28318) (S_283 y_1171)))))
(assert (forall ((y_1171 Int))
	(gt_194 (S_283 y_1171) Z_1109)))
(assert (forall ((x_28318 Int) (y_1171 Int))
	(=> (gt_194 x_28318 y_1171) (gt_194 (S_283 x_28318) (S_283 y_1171)))))
(assert (forall ((y_1171 Int))
	(mult_192 Z_1109 Z_1109 y_1171)))
(assert (forall ((x_28318 Int) (y_1171 Int) (r_227 Int) (z_1110 Int))
	(=> (and (mult_192 r_227 x_28318 y_1171) (add_206 z_1110 r_227 y_1171)) (mult_192 z_1110 (S_283 x_28318) y_1171))))
(assert (forall ((x_28318 Int) (y_1171 Int))
	(=> (lt_202 x_28318 y_1171) (div_192 Z_1109 x_28318 y_1171))))
(assert (forall ((x_28318 Int) (y_1171 Int) (r_227 Int) (z_1110 Int))
	(=> (and (ge_192 x_28318 y_1171) (minus_198 z_1110 x_28318 y_1171) (div_192 r_227 z_1110 y_1171)) (div_192 (S_283 r_227) x_28318 y_1171))))
(assert (forall ((x_28318 Int) (y_1171 Int))
	(=> (lt_202 x_28318 y_1171) (mod_192 x_28318 x_28318 y_1171))))
(assert (forall ((x_28318 Int) (y_1171 Int) (r_227 Int) (z_1110 Int))
	(=> (and (ge_192 x_28318 y_1171) (minus_198 z_1110 x_28318 y_1171) (mod_192 r_227 z_1110 y_1171)) (mod_192 r_227 x_28318 y_1171))))
(declare-datatypes ((list_133 0)) (((nil_147) (cons_133 (head_266 Int) (tail_266 list_133)))))
(declare-fun diseqlist_133 (list_133 list_133) Bool)
(declare-fun head_267 (Int list_133) Bool)
(declare-fun tail_267 (list_133 list_133) Bool)
(declare-fun isnil_147 (list_133) Bool)
(declare-fun iscons_133 (list_133) Bool)
(assert (forall ((x_28329 Int) (x_28330 list_133))
	(head_267 x_28329 (cons_133 x_28329 x_28330))))
(assert (forall ((x_28329 Int) (x_28330 list_133))
	(tail_267 x_28330 (cons_133 x_28329 x_28330))))
(assert (isnil_147 nil_147))
(assert (forall ((x_28332 Int) (x_28333 list_133))
	(iscons_133 (cons_133 x_28332 x_28333))))
(assert (forall ((x_28334 Int) (x_28335 list_133))
	(diseqlist_133 nil_147 (cons_133 x_28334 x_28335))))
(assert (forall ((x_28336 Int) (x_28337 list_133))
	(diseqlist_133 (cons_133 x_28336 x_28337) nil_147)))
(assert (forall ((x_28338 Int) (x_28339 list_133) (x_28340 Int) (x_28341 list_133))
	(=> (diseqInt x_28338 x_28340) (diseqlist_133 (cons_133 x_28338 x_28339) (cons_133 x_28340 x_28341)))))
(assert (forall ((x_28338 Int) (x_28339 list_133) (x_28340 Int) (x_28341 list_133))
	(=> (diseqlist_133 x_28339 x_28341) (diseqlist_133 (cons_133 x_28338 x_28339) (cons_133 x_28340 x_28341)))))
(declare-datatypes ((Heap_5 0)) (((Node_8 (projNode_48 Heap_5) (projNode_49 Int) (projNode_50 Heap_5)) (Nil_148))))
(declare-fun diseqHeap_5 (Heap_5 Heap_5) Bool)
(declare-fun projNode_51 (Heap_5 Heap_5) Bool)
(declare-fun projNode_52 (Int Heap_5) Bool)
(declare-fun projNode_53 (Heap_5 Heap_5) Bool)
(declare-fun isNode_8 (Heap_5) Bool)
(declare-fun isNil_148 (Heap_5) Bool)
(assert (forall ((x_28342 Heap_5) (x_28343 Int) (x_28344 Heap_5))
	(projNode_51 x_28342 (Node_8 x_28342 x_28343 x_28344))))
(assert (forall ((x_28342 Heap_5) (x_28343 Int) (x_28344 Heap_5))
	(projNode_52 x_28343 (Node_8 x_28342 x_28343 x_28344))))
(assert (forall ((x_28342 Heap_5) (x_28343 Int) (x_28344 Heap_5))
	(projNode_53 x_28344 (Node_8 x_28342 x_28343 x_28344))))
(assert (forall ((x_28347 Heap_5) (x_28348 Int) (x_28349 Heap_5))
	(isNode_8 (Node_8 x_28347 x_28348 x_28349))))
(assert (isNil_148 Nil_148))
(assert (forall ((x_28350 Heap_5) (x_28351 Int) (x_28352 Heap_5))
	(diseqHeap_5 (Node_8 x_28350 x_28351 x_28352) Nil_148)))
(assert (forall ((x_28353 Heap_5) (x_28354 Int) (x_28355 Heap_5))
	(diseqHeap_5 Nil_148 (Node_8 x_28353 x_28354 x_28355))))
(assert (forall ((x_28356 Heap_5) (x_28357 Int) (x_28358 Heap_5) (x_28359 Heap_5) (x_28360 Int) (x_28361 Heap_5))
	(=> (diseqHeap_5 x_28356 x_28359) (diseqHeap_5 (Node_8 x_28356 x_28357 x_28358) (Node_8 x_28359 x_28360 x_28361)))))
(assert (forall ((x_28356 Heap_5) (x_28357 Int) (x_28358 Heap_5) (x_28359 Heap_5) (x_28360 Int) (x_28361 Heap_5))
	(=> (diseqInt x_28357 x_28360) (diseqHeap_5 (Node_8 x_28356 x_28357 x_28358) (Node_8 x_28359 x_28360 x_28361)))))
(assert (forall ((x_28356 Heap_5) (x_28357 Int) (x_28358 Heap_5) (x_28359 Heap_5) (x_28360 Int) (x_28361 Heap_5))
	(=> (diseqHeap_5 x_28358 x_28361) (diseqHeap_5 (Node_8 x_28356 x_28357 x_28358) (Node_8 x_28359 x_28360 x_28361)))))
(declare-fun hmerge_5 (Heap_5 Heap_5 Heap_5) Bool)
(assert (forall ((x_28291 Heap_5))
	(hmerge_5 x_28291 Nil_148 x_28291)))
(assert (forall ((z_1107 Heap_5) (x_28280 Int) (x_28281 Heap_5))
	(hmerge_5 (Node_8 z_1107 x_28280 x_28281) (Node_8 z_1107 x_28280 x_28281) Nil_148)))
(assert (forall ((x_28294 Heap_5) (x_28282 Heap_5) (x_28283 Int) (x_28284 Heap_5) (z_1107 Heap_5) (x_28280 Int) (x_28281 Heap_5))
	(=> (and (le_192 x_28280 x_28283) (hmerge_5 x_28294 x_28281 (Node_8 x_28282 x_28283 x_28284))) (hmerge_5 (Node_8 x_28294 x_28280 z_1107) (Node_8 z_1107 x_28280 x_28281) (Node_8 x_28282 x_28283 x_28284)))))
(assert (forall ((x_28296 Heap_5) (x_28282 Heap_5) (x_28283 Int) (x_28284 Heap_5) (z_1107 Heap_5) (x_28280 Int) (x_28281 Heap_5))
	(=> (and (gt_194 x_28280 x_28283) (hmerge_5 x_28296 (Node_8 z_1107 x_28280 x_28281) x_28284)) (hmerge_5 (Node_8 x_28296 x_28283 x_28282) (Node_8 z_1107 x_28280 x_28281) (Node_8 x_28282 x_28283 x_28284)))))
(declare-fun toList_5 (list_133 Heap_5) Bool)
(assert (toList_5 nil_147 Nil_148))
(assert (forall ((x_28299 Heap_5) (x_28300 list_133) (p_188 Heap_5) (y_1167 Int) (q_59 Heap_5))
	(=> (and (hmerge_5 x_28299 p_188 q_59) (toList_5 x_28300 x_28299)) (toList_5 (cons_133 y_1167 x_28300) (Node_8 p_188 y_1167 q_59)))))
(declare-fun hinsert_3 (Heap_5 Int Heap_5) Bool)
(assert (forall ((x_28301 Heap_5) (x_28286 Int) (y_1168 Heap_5))
	(=> (hmerge_5 x_28301 (Node_8 Nil_148 x_28286 Nil_148) y_1168) (hinsert_3 x_28301 x_28286 y_1168))))
(declare-fun toHeap_7 (Heap_5 list_133) Bool)
(assert (forall ((x_28303 Heap_5) (x_28304 Heap_5) (y_1169 Int) (xs_355 list_133))
	(=> (and (toHeap_7 x_28304 xs_355) (hinsert_3 x_28303 y_1169 x_28304)) (toHeap_7 x_28303 (cons_133 y_1169 xs_355)))))
(assert (toHeap_7 Nil_148 nil_147))
(declare-fun hsort_5 (list_133 list_133) Bool)
(assert (forall ((x_28307 list_133) (x_28308 Heap_5) (x_28288 list_133))
	(=> (and (toHeap_7 x_28308 x_28288) (toList_5 x_28307 x_28308)) (hsort_5 x_28307 x_28288))))
(declare-fun count_23 (Int Int list_133) Bool)
(assert (forall ((x_28310 Int) (x_28311 Int) (ys_115 list_133) (x_28289 Int))
	(=> (and (count_23 x_28311 x_28289 ys_115) (add_206 x_28310 (S_283 Z_1109) x_28311)) (count_23 x_28310 x_28289 (cons_133 x_28289 ys_115)))))
(assert (forall ((x_28312 Int) (z_1108 Int) (ys_115 list_133) (x_28289 Int))
	(=> (and (diseqInt x_28289 z_1108) (count_23 x_28312 x_28289 ys_115)) (count_23 x_28312 x_28289 (cons_133 z_1108 ys_115)))))
(assert (forall ((x_28289 Int))
	(count_23 Z_1109 x_28289 nil_147)))
(assert (forall ((x_28315 list_133) (x_28316 Int) (x_28317 Int) (x_28290 Int) (xs_356 list_133))
	(=> (and true (diseqInt x_28316 x_28317) (hsort_5 x_28315 xs_356) (count_23 x_28316 x_28290 x_28315) (count_23 x_28317 x_28290 xs_356)) false)))
(check-sat)
